x low 4.00
p edge 775 2302
n 0 1.00
n 1 1.00
n 16 1.00
n 24 1.00
n 14 1.00
n 8 1.00
n 2 1.00
n 11 1.00
n 6 1.00
n 22 1.00
n 7 1.00
n 4 1.00
n 3 1.00
n 9 1.00
n 28 1.00
n 12 1.00
n 10 1.00
n 13 1.00
n 15 1.00
n 23 1.00
n 27 1.00
n 33 1.00
n 18 1.00
n 39 1.00
n 17 1.00
n 19 1.00
n 29 1.00
n 32 1.00
n 37 1.00
n 46 1.00
n 21 1.00
n 31 1.00
n 34 1.00
n 48 1.00
n 55 1.00
n 25 1.00
n 20 1.00
n 36 1.00
n 40 1.00
n 45 1.00
n 47 1.00
n 30 1.00
n 35 1.00
n 26 1.00
n 51 1.00
n 50 1.00
n 43 1.00
n 59 1.00
n 38 1.00
n 63 1.00
n 49 1.00
n 58 1.00
n 41 1.00
n 52 1.00
n 57 1.00
n 62 1.00
n 42 1.00
n 53 1.00
n 44 1.00
n 56 1.00
n 78 1.00
n 100 1.00
n 192 1.00
n 233 1.00
n 314 1.00
n 66 1.00
n 65 1.00
n 74 1.00
n 83 1.00
n 54 1.00
n 68 1.00
n 69 1.00
n 64 1.00
n 73 1.00
n 76 1.00
n 60 1.00
n 61 1.00
n 67 1.00
n 71 1.00
n 87 1.00
n 77 1.00
n 124 1.00
n 79 1.00
n 96 1.00
n 75 1.00
n 70 1.00
n 72 1.00
n 81 1.00
n 88 1.00
n 94 1.00
n 80 1.00
n 82 1.00
n 84 1.00
n 85 1.00
n 92 1.00
n 98 1.00
n 101 1.00
n 91 1.00
n 90 1.00
n 95 1.00
n 86 1.00
n 97 1.00
n 89 1.00
n 99 1.00
n 93 1.00
n 106 1.00
n 102 1.00
n 105 1.00
n 120 1.00
n 123 1.00
n 108 1.00
n 109 1.00
n 116 1.00
n 104 1.00
n 111 1.00
n 103 1.00
n 130 1.00
n 131 1.00
n 110 1.00
n 119 1.00
n 115 1.00
n 113 1.00
n 112 1.00
n 118 1.00
n 114 1.00
n 107 1.00
n 117 1.00
n 126 1.00
n 134 1.00
n 170 1.00
n 129 1.00
n 128 1.00
n 133 1.00
n 127 1.00
n 137 1.00
n 122 1.00
n 135 1.00
n 121 1.00
n 146 1.00
n 132 1.00
n 139 1.00
n 138 1.00
n 125 1.00
n 147 1.00
n 144 1.00
n 136 1.00
n 151 1.00
n 141 1.00
n 148 1.00
n 143 1.00
n 149 1.00
n 145 1.00
n 184 1.00
n 152 1.00
n 154 1.00
n 156 1.00
n 153 1.00
n 140 1.00
n 157 1.00
n 150 1.00
n 142 1.00
n 164 1.00
n 163 1.00
n 171 1.00
n 162 1.00
n 166 1.00
n 167 1.00
n 169 1.00
n 160 1.00
n 175 1.00
n 158 1.00
n 165 1.00
n 176 1.00
n 172 1.00
n 161 1.00
n 159 1.00
n 174 1.00
n 168 1.00
n 181 1.00
n 177 1.00
n 182 1.00
n 179 1.00
n 178 1.00
n 186 1.00
n 183 1.00
n 173 1.00
n 188 1.00
n 187 1.00
n 190 1.00
n 189 1.00
n 180 1.00
n 193 1.00
n 206 1.00
n 209 1.00
n 191 1.00
n 195 1.00
n 194 1.00
n 185 1.00
n 199 1.00
n 198 1.00
n 197 1.00
n 210 1.00
n 208 1.00
n 200 1.00
n 203 1.00
n 215 1.00
n 214 1.00
n 265 1.00
n 498 1.00
n 703 1.00
n 204 1.00
n 201 1.00
n 196 1.00
n 202 1.00
n 205 1.00
n 213 1.00
n 217 1.00
n 221 1.00
n 230 1.00
n 212 1.00
n 220 1.00
n 227 1.00
n 207 1.00
n 216 1.00
n 223 1.00
n 231 1.00
n 219 1.00
n 229 1.00
n 211 1.00
n 224 1.00
n 222 1.00
n 240 1.00
n 218 1.00
n 225 1.00
n 236 1.00
n 237 1.00
n 234 1.00
n 235 1.00
n 238 1.00
n 232 1.00
n 250 1.00
n 252 1.00
n 228 1.00
n 243 1.00
n 226 1.00
n 242 1.00
n 244 1.00
n 246 1.00
n 239 1.00
n 249 1.00
n 247 1.00
n 248 1.00
n 259 1.00
n 245 1.00
n 254 1.00
n 258 1.00
n 253 1.00
n 241 1.00
n 256 1.00
n 263 1.00
n 264 1.00
n 257 1.00
n 251 1.00
n 262 1.00
n 271 1.00
n 270 1.00
n 269 1.00
n 255 1.00
n 260 1.00
n 273 1.00
n 272 1.00
n 266 1.00
n 268 1.00
n 261 1.00
n 279 1.00
n 284 1.00
n 275 1.00
n 276 1.00
n 267 1.00
n 274 1.00
n 281 1.00
n 280 1.00
n 289 1.00
n 292 1.00
n 282 1.00
n 278 1.00
n 283 1.00
n 294 1.00
n 291 1.00
n 287 1.00
n 296 1.00
n 288 1.00
n 304 1.00
n 394 1.00
n 285 1.00
n 290 1.00
n 297 1.00
n 277 1.00
n 298 1.00
n 286 1.00
n 293 1.00
n 301 1.00
n 295 1.00
n 299 1.00
n 300 1.00
n 309 1.00
n 313 1.00
n 311 1.00
n 307 1.00
n 312 1.00
n 306 1.00
n 305 1.00
n 302 1.00
n 315 1.00
n 316 1.00
n 327 1.00
n 310 1.00
n 303 1.00
n 308 1.00
n 319 1.00
n 318 1.00
n 322 1.00
n 324 1.00
n 320 1.00
n 339 1.00
n 321 1.00
n 330 1.00
n 328 1.00
n 342 1.00
n 351 1.00
n 336 1.00
n 323 1.00
n 337 1.00
n 317 1.00
n 325 1.00
n 329 1.00
n 356 1.00
n 366 1.00
n 461 1.00
n 331 1.00
n 332 1.00
n 326 1.00
n 334 1.00
n 333 1.00
n 348 1.00
n 344 1.00
n 338 1.00
n 345 1.00
n 335 1.00
n 347 1.00
n 350 1.00
n 353 1.00
n 343 1.00
n 355 1.00
n 340 1.00
n 359 1.00
n 341 1.00
n 346 1.00
n 349 1.00
n 357 1.00
n 365 1.00
n 367 1.00
n 363 1.00
n 372 1.00
n 352 1.00
n 364 1.00
n 370 1.00
n 354 1.00
n 368 1.00
n 361 1.00
n 358 1.00
n 369 1.00
n 371 1.00
n 360 1.00
n 375 1.00
n 376 1.00
n 380 1.00
n 362 1.00
n 379 1.00
n 373 1.00
n 381 1.00
n 383 1.00
n 374 1.00
n 377 1.00
n 384 1.00
n 378 1.00
n 382 1.00
n 388 1.00
n 396 1.00
n 393 1.00
n 403 1.00
n 405 1.00
n 390 1.00
n 391 1.00
n 395 1.00
n 398 1.00
n 392 1.00
n 404 1.00
n 409 1.00
n 408 1.00
n 387 1.00
n 397 1.00
n 385 1.00
n 410 1.00
n 401 1.00
n 386 1.00
n 399 1.00
n 389 1.00
n 415 1.00
n 417 1.00
n 400 1.00
n 406 1.00
n 411 1.00
n 402 1.00
n 421 1.00
n 418 1.00
n 407 1.00
n 419 1.00
n 412 1.00
n 422 1.00
n 435 1.00
n 420 1.00
n 427 1.00
n 414 1.00
n 413 1.00
n 424 1.00
n 431 1.00
n 439 1.00
n 423 1.00
n 425 1.00
n 443 1.00
n 430 1.00
n 416 1.00
n 426 1.00
n 433 1.00
n 436 1.00
n 445 1.00
n 434 1.00
n 440 1.00
n 438 1.00
n 456 1.00
n 455 1.00
n 450 1.00
n 432 1.00
n 437 1.00
n 444 1.00
n 451 1.00
n 429 1.00
n 448 1.00
n 442 1.00
n 452 1.00
n 446 1.00
n 441 1.00
n 449 1.00
n 454 1.00
n 447 1.00
n 468 1.00
n 466 1.00
n 471 1.00
n 458 1.00
n 464 1.00
n 463 1.00
n 469 1.00
n 460 1.00
n 470 1.00
n 462 1.00
n 465 1.00
n 484 1.00
n 457 1.00
n 473 1.00
n 453 1.00
n 467 1.00
n 475 1.00
n 459 1.00
n 472 1.00
n 476 1.00
n 481 1.00
n 486 1.00
n 478 1.00
n 489 1.00
n 515 1.00
n 554 1.00
n 619 1.00
n 728 1.00
n 485 1.00
n 491 1.00
n 474 1.00
n 479 1.00
n 483 1.00
n 482 1.00
n 500 1.00
n 477 1.00
n 487 1.00
n 504 1.00
n 506 1.00
n 493 1.00
n 480 1.00
n 494 1.00
n 495 1.00
n 490 1.00
n 497 1.00
n 503 1.00
n 502 1.00
n 488 1.00
n 492 1.00
n 509 1.00
n 510 1.00
n 499 1.00
n 505 1.00
n 511 1.00
n 507 1.00
n 496 1.00
n 513 1.00
n 501 1.00
n 519 1.00
n 512 1.00
n 514 1.00
n 517 1.00
n 526 1.00
n 520 1.00
n 521 1.00
n 508 1.00
n 525 1.00
n 532 1.00
n 528 1.00
n 534 1.00
n 522 1.00
n 516 1.00
n 529 1.00
n 530 1.00
n 538 1.00
n 527 1.00
n 524 1.00
n 531 1.00
n 537 1.00
n 545 1.00
n 544 1.00
n 518 1.00
n 523 1.00
n 533 1.00
n 546 1.00
n 551 1.00
n 536 1.00
n 552 1.00
n 535 1.00
n 540 1.00
n 541 1.00
n 542 1.00
n 543 1.00
n 547 1.00
n 550 1.00
n 557 1.00
n 562 1.00
n 539 1.00
n 559 1.00
n 623 1.00
n 553 1.00
n 555 1.00
n 563 1.00
n 558 1.00
n 549 1.00
n 560 1.00
n 569 1.00
n 576 1.00
n 570 1.00
n 574 1.00
n 566 1.00
n 572 1.00
n 580 1.00
n 548 1.00
n 556 1.00
n 567 1.00
n 573 1.00
n 579 1.00
n 565 1.00
n 577 1.00
n 571 1.00
n 561 1.00
n 582 1.00
n 584 1.00
n 583 1.00
n 568 1.00
n 587 1.00
n 589 1.00
n 598 1.00
n 564 1.00
n 575 1.00
n 578 1.00
n 586 1.00
n 600 1.00
n 581 1.00
n 592 1.00
n 597 1.00
n 588 1.00
n 594 1.00
n 604 1.00
n 595 1.00
n 599 1.00
n 606 1.00
n 585 1.00
n 596 1.00
n 593 1.00
n 603 1.00
n 614 1.00
n 609 1.00
n 591 1.00
n 601 1.00
n 607 1.00
n 590 1.00
n 602 1.00
n 612 1.00
n 616 1.00
n 618 1.00
n 611 1.00
n 608 1.00
n 605 1.00
n 615 1.00
n 610 1.00
n 626 1.00
n 613 1.00
n 621 1.00
n 629 1.00
n 624 1.00
n 620 1.00
n 630 1.00
n 634 1.00
n 617 1.00
n 625 1.00
n 644 1.00
n 633 1.00
n 640 1.00
n 632 1.00
n 631 1.00
n 636 1.00
n 627 1.00
n 638 1.00
n 641 1.00
n 622 1.00
n 676 1.00
n 681 1.00
n 650 1.00
n 660 1.00
n 635 1.00
n 657 1.00
n 637 1.00
n 639 1.00
n 655 1.00
n 647 1.00
n 648 1.00
n 645 1.00
n 653 1.00
n 652 1.00
n 649 1.00
n 663 1.00
n 666 1.00
n 643 1.00
n 654 1.00
n 659 1.00
n 642 1.00
n 646 1.00
n 651 1.00
n 658 1.00
n 664 1.00
n 661 1.00
n 662 1.00
n 656 1.00
n 670 1.00
n 667 1.00
n 669 1.00
n 672 1.00
n 665 1.00
n 685 1.00
n 688 1.00
n 678 1.00
n 679 1.00
n 674 1.00
n 680 1.00
n 686 1.00
n 677 1.00
n 671 1.00
n 668 1.00
n 683 1.00
n 692 1.00
n 673 1.00
n 675 1.00
n 693 1.00
n 687 1.00
n 682 1.00
n 696 1.00
n 707 1.00
n 701 1.00
n 689 1.00
n 690 1.00
n 684 1.00
n 704 1.00
n 691 1.00
n 711 1.00
n 708 1.00
n 694 1.00
n 698 1.00
n 706 1.00
n 705 1.00
n 709 1.00
n 695 1.00
n 710 1.00
n 700 1.00
n 699 1.00
n 697 1.00
n 712 1.00
n 715 1.00
n 722 1.00
n 726 1.00
n 729 1.00
n 714 1.00
n 720 1.00
n 716 1.00
n 724 1.00
n 721 1.00
n 718 1.00
n 719 1.00
n 725 1.00
n 723 1.00
n 737 1.00
n 768 1.00
n 717 1.00
n 731 1.00
n 735 1.00
n 734 1.00
n 713 1.00
n 732 1.00
n 727 1.00
n 740 1.00
n 741 1.00
n 743 1.00
n 736 1.00
n 754 1.00
n 739 1.00
n 747 1.00
n 738 1.00
n 730 1.00
n 750 1.00
n 751 1.00
n 733 1.00
n 748 1.00
n 749 1.00
n 752 1.00
n 745 1.00
n 742 1.00
n 756 1.00
n 767 1.00
n 746 1.00
n 744 1.00
n 760 1.00
n 753 1.00
n 757 1.00
n 755 1.00
n 759 1.00
n 762 1.00
n 779 1.00
n 780 1.00
n 765 1.00
n 761 1.00
n 763 1.00
n 774 1.00
n 781 1.00
n 778 1.00
n 776 1.00
n 772 1.00
n 758 1.00
n 764 1.00
n 775 1.00
n 771 1.00
n 777 1.00
n 769 1.00
n 773 1.00
e 0 1
e 0 16
e 0 24
e 0 14
e 1 8
e 1 2
e 1 11
e 1 6
e 1 16
e 1 22
e 2 7
e 2 4
e 2 3
e 2 9
e 2 8
e 2 28
e 3 7
e 3 12
e 3 10
e 3 13
e 3 15
e 3 23
e 3 27
e 3 33
e 4 7
e 4 18
e 4 28
e 6 11
e 6 17
e 6 22
e 7 13
e 7 18
e 7 19
e 7 29
e 8 9
e 8 11
e 8 32
e 9 28
e 9 32
e 10 12
e 10 33
e 10 37
e 11 17
e 11 32
e 11 46
e 12 37
e 12 39
e 13 15
e 13 19
e 13 21
e 13 31
e 13 34
e 14 24
e 14 48
e 14 55
e 15 23
e 15 25
e 15 20
e 15 31
e 16 22
e 16 24
e 16 36
e 17 22
e 17 40
e 17 45
e 17 46
e 18 29
e 18 28
e 18 47
e 19 21
e 19 30
e 19 29
e 19 35
e 20 26
e 20 25
e 20 23
e 21 30
e 21 34
e 22 36
e 22 40
e 23 26
e 23 27
e 24 36
e 24 51
e 24 48
e 25 26
e 25 31
e 25 50
e 25 43
e 26 27
e 26 43
e 27 33
e 27 43
e 27 59
e 28 32
e 28 38
e 28 47
e 29 35
e 29 47
e 29 63
e 30 35
e 30 34
e 30 49
e 30 58
e 31 34
e 31 41
e 31 50
e 32 38
e 32 46
e 32 52
e 32 57
e 32 62
e 33 37
e 33 42
e 33 59
e 34 41
e 34 49
e 34 53
e 35 58
e 35 63
e 36 40
e 36 44
e 36 51
e 36 56
e 37 39
e 37 42
e 37 78
e 38 47
e 38 62
e 39 78
e 39 100
e 39 192
e 39 233
e 39 314
e 40 45
e 40 44
e 40 66
e 41 50
e 41 53
e 42 59
e 42 65
e 42 74
e 42 78
e 42 83
e 43 59
e 43 54
e 43 50
e 43 68
e 44 56
e 44 66
e 44 69
e 45 46
e 45 64
e 45 66
e 46 52
e 46 64
e 47 63
e 47 62
e 47 73
e 47 76
e 48 51
e 48 55
e 49 53
e 49 58
e 49 60
e 49 61
e 49 67
e 50 53
e 50 68
e 50 71
e 51 56
e 51 55
e 51 87
e 52 57
e 52 64
e 53 61
e 53 71
e 54 59
e 54 68
e 54 77
e 55 87
e 55 124
e 56 69
e 56 79
e 56 87
e 56 96
e 57 62
e 57 64
e 57 75
e 58 60
e 58 63
e 58 70
e 59 65
e 59 72
e 59 77
e 60 67
e 60 70
e 61 67
e 61 71
e 61 81
e 62 73
e 62 75
e 62 88
e 62 94
e 63 70
e 63 76
e 64 66
e 64 75
e 64 80
e 64 82
e 65 72
e 65 74
e 66 69
e 66 80
e 67 81
e 67 70
e 67 84
e 67 85
e 68 77
e 68 71
e 68 92
e 69 80
e 69 79
e 70 84
e 70 76
e 70 98
e 70 101
e 71 81
e 71 92
e 71 91
e 72 77
e 72 74
e 72 90
e 72 95
e 73 76
e 73 88
e 74 83
e 74 86
e 74 95
e 75 82
e 75 94
e 75 97
e 76 88
e 76 101
e 77 90
e 77 92
e 77 89
e 78 83
e 78 100
e 79 80
e 79 96
e 79 99
e 80 82
e 80 93
e 80 99
e 80 106
e 81 85
e 81 91
e 81 102
e 82 93
e 82 97
e 83 86
e 83 100
e 83 105
e 84 85
e 84 98
e 85 98
e 85 120
e 85 102
e 85 123
e 86 95
e 86 105
e 86 108
e 87 96
e 87 109
e 87 116
e 87 124
e 88 94
e 88 101
e 88 104
e 88 111
e 89 90
e 89 92
e 89 103
e 90 95
e 90 103
e 91 92
e 91 102
e 92 102
e 92 103
e 92 130
e 92 131
e 93 97
e 93 106
e 93 110
e 93 119
e 94 97
e 94 111
e 94 115
e 95 103
e 95 108
e 95 113
e 95 112
e 95 118
e 96 99
e 96 109
e 96 114
e 97 115
e 97 119
e 98 101
e 98 104
e 98 107
e 98 120
e 98 117
e 99 106
e 99 114
e 99 126
e 100 105
e 100 134
e 100 170
e 100 192
e 101 104
e 102 123
e 102 129
e 102 128
e 102 131
e 103 112
e 103 130
e 104 111
e 104 107
e 105 108
e 105 134
e 105 133
e 106 110
e 106 126
e 107 111
e 107 117
e 107 127
e 107 137
e 108 113
e 108 133
e 109 114
e 109 116
e 109 122
e 110 119
e 110 126
e 110 135
e 111 115
e 111 127
e 112 118
e 112 130
e 113 118
e 113 121
e 113 133
e 114 122
e 114 126
e 114 146
e 115 119
e 115 132
e 115 127
e 115 139
e 116 122
e 116 124
e 116 138
e 117 120
e 117 125
e 117 137
e 118 121
e 118 130
e 118 147
e 118 144
e 119 132
e 119 135
e 119 136
e 119 151
e 120 123
e 120 125
e 121 133
e 121 147
e 121 141
e 121 148
e 122 138
e 122 146
e 123 128
e 123 143
e 123 125
e 123 149
e 124 138
e 124 145
e 124 184
e 125 137
e 125 149
e 126 135
e 126 146
e 126 152
e 126 154
e 127 139
e 127 137
e 127 156
e 128 129
e 128 143
e 128 153
e 129 131
e 129 140
e 129 153
e 130 131
e 130 144
e 130 157
e 131 140
e 131 157
e 132 136
e 132 139
e 133 134
e 133 148
e 134 148
e 134 170
e 135 152
e 135 151
e 135 150
e 136 151
e 136 139
e 136 142
e 137 149
e 137 156
e 137 164
e 137 163
e 138 146
e 138 145
e 138 171
e 139 142
e 139 156
e 139 162
e 140 153
e 140 157
e 140 166
e 141 147
e 141 148
e 141 167
e 141 169
e 142 151
e 142 160
e 142 162
e 142 175
e 143 149
e 143 153
e 143 158
e 144 147
e 144 157
e 144 165
e 144 167
e 145 171
e 145 184
e 146 154
e 146 171
e 147 167
e 148 170
e 148 169
e 148 176
e 149 164
e 149 158
e 149 172
e 150 151
e 150 152
e 150 161
e 151 160
e 151 161
e 152 154
e 152 159
e 152 161
e 152 174
e 153 158
e 153 166
e 154 159
e 154 171
e 156 163
e 156 162
e 156 168
e 156 181
e 157 165
e 157 166
e 157 177
e 158 166
e 158 172
e 158 182
e 159 174
e 159 171
e 159 179
e 160 161
e 160 175
e 160 178
e 160 186
e 161 174
e 161 183
e 161 186
e 162 168
e 162 175
e 163 164
e 163 181
e 164 172
e 164 181
e 165 167
e 165 173
e 165 177
e 166 177
e 166 182
e 166 188
e 166 187
e 166 190
e 167 169
e 167 173
e 168 175
e 168 181
e 168 189
e 169 176
e 169 180
e 169 173
e 169 193
e 169 206
e 170 176
e 170 192
e 171 179
e 171 184
e 172 181
e 172 182
e 172 209
e 173 177
e 173 191
e 173 206
e 174 183
e 174 179
e 174 195
e 174 194
e 174 185
e 175 178
e 175 189
e 175 199
e 176 180
e 176 192
e 176 198
e 177 188
e 177 191
e 178 186
e 178 199
e 178 197
e 179 184
e 179 185
e 180 198
e 180 193
e 181 189
e 181 210
e 181 208
e 181 209
e 182 187
e 182 200
e 182 209
e 183 186
e 183 195
e 183 203
e 184 185
e 184 215
e 184 214
e 184 265
e 184 498
e 184 703
e 185 194
e 185 204
e 185 215
e 186 203
e 186 201
e 186 197
e 187 190
e 187 196
e 187 200
e 188 190
e 188 191
e 188 202
e 189 199
e 189 205
e 189 210
e 190 196
e 190 202
e 191 202
e 191 206
e 192 198
e 192 233
e 193 198
e 193 206
e 193 213
e 193 217
e 194 195
e 194 204
e 194 221
e 194 230
e 195 203
e 195 221
e 196 200
e 196 202
e 196 212
e 196 220
e 196 227
e 197 199
e 197 201
e 197 207
e 197 216
e 197 223
e 197 231
e 198 217
e 198 233
e 199 205
e 199 216
e 200 209
e 200 212
e 201 203
e 201 207
e 202 206
e 202 219
e 202 227
e 203 207
e 203 221
e 203 223
e 204 215
e 204 230
e 204 229
e 205 210
e 205 216
e 205 211
e 205 224
e 206 213
e 206 222
e 206 219
e 206 240
e 207 223
e 208 210
e 208 209
e 208 211
e 208 218
e 209 212
e 209 218
e 209 225
e 209 236
e 210 211
e 211 218
e 211 224
e 212 220
e 212 225
e 213 217
e 213 222
e 213 237
e 214 215
e 214 234
e 214 265
e 215 234
e 215 235
e 215 238
e 215 229
e 216 224
e 216 232
e 216 231
e 217 233
e 217 237
e 218 224
e 218 236
e 218 250
e 218 252
e 219 227
e 219 240
e 220 225
e 220 227
e 220 228
e 220 243
e 221 230
e 221 226
e 221 223
e 221 242
e 222 237
e 222 240
e 222 244
e 222 246
e 223 231
e 223 239
e 223 242
e 224 232
e 224 249
e 224 252
e 225 236
e 225 243
e 226 230
e 226 242
e 226 247
e 226 248
e 227 228
e 227 240
e 227 259
e 228 243
e 228 259
e 229 230
e 229 238
e 229 245
e 229 247
e 229 254
e 230 247
e 231 232
e 231 239
e 231 249
e 231 258
e 232 249
e 233 237
e 233 253
e 233 314
e 234 235
e 234 241
e 234 265
e 235 238
e 235 241
e 236 250
e 236 243
e 236 256
e 237 246
e 237 253
e 237 263
e 237 264
e 238 245
e 238 241
e 239 242
e 239 258
e 239 257
e 240 244
e 240 251
e 240 259
e 240 262
e 240 271
e 240 270
e 241 265
e 241 269
e 241 245
e 241 254
e 242 248
e 242 255
e 242 257
e 243 256
e 243 259
e 244 246
e 244 251
e 244 260
e 245 254
e 246 260
e 246 263
e 247 248
e 247 254
e 247 273
e 247 272
e 248 255
e 248 266
e 248 273
e 249 252
e 249 258
e 249 268
e 250 252
e 250 256
e 250 261
e 251 260
e 251 271
e 252 268
e 252 261
e 253 264
e 253 279
e 253 284
e 253 314
e 254 272
e 254 275
e 254 276
e 254 269
e 255 257
e 255 267
e 255 266
e 256 261
e 256 274
e 256 259
e 256 281
e 257 258
e 257 267
e 258 268
e 258 280
e 258 289
e 258 267
e 258 292
e 259 262
e 259 281
e 259 282
e 260 263
e 260 278
e 260 283
e 260 271
e 261 274
e 261 294
e 261 268
e 261 291
e 262 270
e 262 282
e 262 287
e 263 264
e 263 278
e 263 296
e 263 279
e 264 279
e 265 269
e 265 288
e 265 304
e 265 394
e 265 498
e 266 267
e 266 273
e 266 285
e 266 290
e 267 290
e 267 292
e 268 280
e 268 291
e 269 276
e 269 288
e 270 271
e 270 287
e 270 297
e 271 283
e 271 297
e 272 273
e 272 275
e 272 277
e 273 277
e 273 285
e 273 298
e 274 281
e 274 286
e 274 294
e 275 276
e 275 277
e 275 293
e 276 288
e 276 293
e 276 301
e 277 293
e 277 298
e 278 283
e 278 296
e 278 295
e 279 284
e 279 296
e 280 289
e 280 291
e 280 299
e 281 282
e 281 286
e 281 300
e 282 287
e 282 300
e 282 309
e 283 295
e 283 297
e 284 296
e 284 313
e 284 314
e 285 290
e 285 298
e 286 300
e 286 294
e 286 311
e 287 307
e 287 309
e 287 297
e 288 301
e 288 304
e 288 312
e 289 292
e 289 299
e 289 306
e 290 292
e 290 298
e 290 305
e 291 294
e 291 299
e 291 302
e 292 306
e 292 305
e 292 315
e 293 301
e 293 298
e 293 316
e 293 327
e 294 311
e 294 302
e 294 310
e 295 296
e 295 303
e 295 297
e 295 308
e 296 303
e 296 313
e 297 308
e 297 307
e 297 319
e 298 305
e 298 316
e 298 318
e 298 322
e 298 324
e 299 306
e 299 302
e 299 320
e 300 309
e 300 311
e 300 339
e 301 312
e 301 327
e 302 310
e 302 320
e 302 321
e 303 313
e 303 308
e 303 330
e 303 328
e 304 312
e 304 342
e 304 351
e 304 394
e 305 315
e 305 324
e 306 315
e 306 320
e 307 309
e 307 319
e 307 336
e 308 319
e 308 323
e 308 330
e 309 336
e 309 337
e 309 339
e 310 311
e 310 317
e 310 321
e 310 325
e 310 329
e 311 317
e 311 339
e 312 327
e 312 342
e 313 314
e 313 328
e 314 328
e 314 356
e 314 366
e 314 461
e 315 324
e 315 331
e 315 320
e 315 332
e 316 318
e 316 326
e 316 327
e 316 334
e 317 325
e 317 339
e 318 322
e 318 326
e 319 323
e 319 333
e 319 336
e 319 348
e 320 321
e 320 332
e 321 329
e 321 332
e 321 344
e 322 324
e 322 326
e 322 338
e 323 330
e 323 333
e 324 331
e 324 338
e 324 345
e 325 329
e 325 335
e 325 339
e 325 347
e 325 350
e 325 353
e 326 334
e 326 338
e 327 334
e 327 342
e 327 343
e 327 355
e 328 330
e 328 340
e 328 356
e 329 335
e 329 344
e 329 359
e 330 333
e 330 341
e 330 340
e 331 332
e 331 346
e 331 345
e 331 349
e 332 346
e 332 344
e 333 341
e 333 348
e 334 343
e 334 357
e 334 338
e 334 365
e 335 353
e 335 359
e 336 337
e 336 348
e 336 367
e 337 339
e 337 363
e 337 367
e 337 372
e 338 345
e 338 352
e 338 364
e 338 365
e 338 370
e 339 347
e 339 363
e 340 356
e 340 354
e 340 341
e 340 368
e 341 348
e 341 361
e 341 368
e 342 355
e 342 351
e 342 358
e 343 357
e 343 355
e 344 346
e 344 359
e 344 369
e 344 371
e 345 352
e 345 349
e 346 349
e 346 369
e 347 350
e 347 363
e 348 361
e 348 360
e 348 367
e 349 352
e 349 369
e 349 375
e 349 376
e 350 353
e 350 363
e 350 380
e 351 358
e 351 362
e 351 394
e 352 364
e 352 375
e 353 359
e 353 379
e 353 380
e 354 356
e 354 368
e 354 366
e 354 373
e 355 358
e 355 357
e 355 381
e 356 366
e 357 365
e 357 381
e 358 362
e 358 381
e 358 383
e 359 371
e 359 374
e 359 379
e 360 361
e 360 367
e 360 377
e 360 384
e 361 368
e 361 378
e 361 377
e 362 383
e 362 394
e 363 372
e 363 380
e 363 382
e 364 370
e 364 375
e 365 370
e 365 381
e 365 388
e 365 396
e 366 373
e 366 393
e 366 403
e 366 405
e 366 461
e 367 372
e 367 384
e 368 373
e 368 378
e 369 371
e 369 376
e 369 390
e 370 388
e 370 391
e 370 375
e 371 374
e 371 390
e 372 382
e 372 384
e 373 378
e 373 393
e 373 395
e 373 398
e 374 379
e 374 390
e 375 376
e 375 392
e 375 391
e 375 404
e 376 392
e 376 390
e 376 409
e 376 408
e 377 378
e 377 384
e 377 387
e 377 397
e 378 395
e 378 397
e 379 380
e 379 385
e 379 390
e 379 410
e 380 385
e 380 382
e 380 401
e 381 383
e 381 386
e 381 396
e 382 384
e 382 401
e 382 399
e 383 386
e 383 389
e 383 394
e 384 387
e 384 399
e 385 401
e 385 410
e 385 415
e 385 417
e 386 389
e 386 396
e 386 400
e 386 406
e 387 397
e 387 399
e 387 411
e 387 402
e 388 391
e 388 396
e 388 421
e 389 400
e 389 394
e 390 409
e 390 410
e 390 418
e 391 404
e 391 421
e 392 408
e 392 407
e 392 404
e 392 419
e 393 398
e 393 403
e 393 412
e 394 400
e 394 422
e 394 435
e 394 498
e 395 398
e 395 397
e 395 420
e 396 406
e 396 421
e 397 411
e 397 420
e 398 412
e 398 420
e 398 427
e 399 401
e 399 402
e 399 414
e 399 413
e 400 406
e 400 422
e 400 424
e 401 415
e 401 413
e 401 431
e 402 411
e 402 414
e 402 439
e 403 412
e 403 405
e 404 419
e 404 421
e 404 423
e 404 425
e 405 412
e 405 443
e 405 461
e 406 421
e 406 424
e 407 408
e 407 419
e 407 430
e 408 409
e 408 430
e 409 418
e 409 430
e 410 418
e 410 416
e 410 417
e 411 420
e 411 426
e 411 439
e 412 427
e 412 443
e 413 414
e 413 431
e 414 431
e 414 439
e 415 417
e 415 431
e 415 433
e 415 436
e 415 445
e 416 418
e 416 417
e 416 434
e 416 440
e 417 433
e 417 440
e 418 430
e 418 434
e 419 423
e 419 430
e 419 438
e 419 456
e 419 455
e 420 427
e 420 426
e 420 450
e 421 425
e 421 432
e 421 424
e 421 437
e 422 424
e 422 435
e 422 444
e 422 451
e 423 425
e 423 429
e 423 448
e 423 455
e 424 437
e 424 442
e 424 451
e 424 452
e 425 429
e 425 432
e 426 439
e 426 446
e 426 450
e 427 443
e 427 441
e 427 450
e 429 432
e 429 448
e 430 434
e 430 438
e 431 439
e 431 445
e 431 449
e 432 437
e 432 454
e 432 448
e 433 436
e 433 440
e 433 447
e 434 440
e 434 438
e 434 468
e 434 466
e 435 444
e 435 471
e 435 498
e 436 447
e 436 445
e 436 458
e 437 442
e 437 454
e 438 456
e 438 466
e 439 446
e 439 449
e 439 464
e 440 447
e 440 463
e 440 469
e 440 468
e 441 443
e 441 450
e 441 460
e 441 470
e 442 452
e 442 454
e 442 462
e 442 465
e 442 484
e 443 460
e 443 461
e 444 451
e 444 471
e 444 457
e 445 449
e 445 458
e 445 473
e 446 450
e 446 453
e 446 464
e 446 467
e 447 458
e 447 463
e 447 475
e 448 455
e 448 454
e 448 459
e 449 464
e 449 473
e 450 453
e 450 470
e 451 452
e 451 457
e 452 457
e 452 465
e 453 467
e 453 470
e 454 459
e 454 462
e 455 456
e 455 459
e 455 472
e 455 476
e 456 466
e 456 476
e 457 465
e 457 471
e 457 481
e 458 473
e 458 475
e 458 486
e 459 462
e 459 472
e 460 461
e 460 470
e 460 478
e 461 478
e 461 489
e 461 515
e 461 554
e 461 619
e 461 728
e 462 472
e 462 484
e 462 485
e 462 491
e 463 469
e 463 475
e 464 467
e 464 473
e 464 474
e 464 479
e 465 481
e 465 484
e 465 483
e 466 468
e 466 476
e 466 482
e 466 500
e 467 470
e 467 474
e 467 477
e 467 487
e 468 469
e 468 500
e 468 504
e 468 506
e 469 475
e 469 493
e 469 504
e 470 478
e 470 480
e 470 477
e 471 481
e 471 498
e 472 476
e 472 491
e 472 494
e 473 479
e 473 486
e 474 479
e 474 487
e 475 486
e 475 495
e 475 493
e 476 482
e 476 490
e 476 494
e 477 487
e 477 497
e 477 480
e 478 480
e 478 489
e 478 503
e 478 502
e 479 486
e 479 488
e 479 487
e 479 492
e 480 502
e 480 509
e 480 497
e 481 483
e 481 498
e 481 510
e 482 490
e 482 499
e 482 500
e 483 484
e 483 505
e 483 510
e 484 485
e 484 505
e 484 511
e 485 491
e 485 507
e 485 511
e 486 488
e 486 495
e 486 496
e 486 513
e 487 492
e 487 497
e 487 501
e 487 519
e 488 492
e 488 513
e 489 503
e 489 515
e 490 499
e 490 494
e 490 512
e 490 514
e 491 494
e 491 507
e 491 517
e 492 513
e 492 519
e 493 495
e 493 504
e 493 526
e 493 520
e 494 512
e 494 517
e 495 496
e 495 521
e 495 526
e 496 513
e 496 521
e 497 501
e 497 509
e 497 508
e 498 510
e 498 525
e 498 532
e 498 703
e 499 500
e 499 514
e 500 506
e 500 514
e 500 528
e 500 534
e 501 508
e 501 519
e 502 503
e 502 509
e 502 522
e 503 515
e 503 522
e 504 506
e 504 520
e 505 511
e 505 510
e 505 516
e 505 529
e 506 520
e 506 534
e 507 511
e 507 517
e 507 530
e 507 538
e 508 519
e 508 527
e 508 524
e 508 509
e 508 531
e 509 522
e 509 531
e 509 537
e 509 545
e 509 544
e 510 529
e 510 525
e 511 516
e 511 538
e 512 514
e 512 517
e 512 518
e 513 519
e 513 521
e 513 523
e 514 528
e 514 518
e 515 522
e 515 554
e 516 529
e 516 533
e 516 538
e 517 518
e 517 530
e 517 546
e 518 546
e 518 528
e 518 551
e 519 523
e 519 527
e 519 536
e 519 552
e 520 534
e 520 535
e 520 526
e 520 540
e 520 541
e 521 523
e 521 526
e 521 542
e 522 537
e 522 554
e 523 542
e 523 552
e 524 527
e 524 531
e 524 543
e 525 529
e 525 532
e 525 547
e 525 550
e 526 542
e 526 541
e 526 557
e 527 543
e 527 536
e 528 534
e 528 551
e 528 562
e 529 533
e 529 550
e 530 538
e 530 546
e 530 539
e 531 544
e 531 543
e 532 547
e 532 559
e 532 623
e 532 703
e 533 550
e 533 538
e 533 553
e 534 535
e 534 555
e 534 562
e 534 563
e 535 540
e 535 555
e 536 543
e 536 552
e 536 558
e 537 545
e 537 549
e 537 554
e 538 539
e 538 553
e 538 560
e 539 546
e 539 560
e 540 541
e 540 555
e 541 557
e 541 555
e 541 569
e 541 576
e 542 552
e 542 557
e 542 570
e 542 574
e 543 544
e 543 566
e 543 558
e 543 572
e 543 580
e 544 545
e 544 548
e 544 566
e 545 548
e 545 549
e 546 551
e 546 556
e 546 560
e 547 550
e 547 559
e 547 567
e 548 549
e 548 566
e 548 573
e 549 554
e 549 573
e 550 553
e 550 567
e 550 579
e 551 556
e 551 562
e 551 565
e 551 577
e 552 558
e 552 571
e 552 570
e 553 560
e 553 561
e 553 579
e 554 573
e 554 582
e 554 584
e 554 619
e 555 563
e 555 576
e 555 583
e 556 577
e 556 560
e 556 568
e 556 587
e 556 589
e 556 598
e 557 569
e 557 564
e 557 574
e 558 571
e 558 572
e 559 567
e 559 575
e 559 623
e 560 561
e 560 568
e 561 568
e 561 578
e 561 579
e 562 563
e 562 565
e 563 565
e 563 583
e 563 586
e 564 569
e 564 574
e 564 600
e 565 577
e 565 586
e 566 573
e 566 581
e 566 580
e 566 592
e 567 575
e 567 579
e 568 578
e 568 589
e 568 597
e 569 576
e 569 600
e 570 574
e 570 571
e 570 588
e 571 572
e 571 588
e 571 580
e 572 580
e 573 582
e 573 581
e 573 594
e 574 588
e 574 604
e 574 600
e 575 579
e 575 595
e 575 623
e 576 583
e 576 599
e 576 600
e 577 587
e 577 586
e 577 606
e 578 579
e 578 585
e 578 597
e 578 596
e 579 585
e 579 595
e 579 593
e 580 592
e 580 603
e 580 588
e 580 614
e 580 609
e 581 592
e 581 594
e 581 591
e 582 584
e 582 594
e 582 601
e 582 607
e 583 586
e 583 590
e 583 599
e 584 601
e 584 619
e 585 593
e 585 596
e 586 590
e 586 602
e 586 606
e 587 598
e 587 606
e 587 612
e 587 616
e 587 618
e 588 604
e 588 609
e 589 598
e 589 597
e 589 611
e 590 602
e 590 599
e 590 608
e 591 594
e 591 592
e 591 605
e 591 615
e 592 603
e 592 605
e 593 596
e 593 595
e 593 610
e 594 607
e 594 615
e 595 610
e 595 623
e 596 597
e 596 610
e 596 611
e 596 626
e 597 611
e 598 611
e 598 612
e 599 600
e 599 608
e 599 613
e 599 621
e 599 629
e 600 604
e 600 613
e 601 607
e 601 624
e 601 619
e 602 606
e 602 608
e 602 620
e 603 605
e 603 614
e 604 613
e 604 609
e 604 630
e 605 615
e 605 614
e 606 616
e 606 620
e 607 624
e 607 615
e 607 634
e 608 620
e 608 621
e 609 614
e 609 617
e 609 630
e 610 623
e 610 625
e 610 626
e 610 644
e 611 612
e 611 633
e 611 626
e 612 618
e 612 633
e 612 640
e 613 629
e 613 630
e 613 632
e 614 617
e 614 631
e 614 615
e 614 636
e 615 634
e 615 636
e 616 618
e 616 620
e 616 627
e 617 631
e 617 630
e 617 638
e 617 641
e 618 640
e 618 627
e 619 624
e 619 622
e 619 676
e 619 681
e 619 728
e 620 627
e 620 621
e 620 650
e 620 660
e 621 629
e 621 635
e 621 650
e 622 624
e 622 657
e 622 676
e 623 625
e 623 637
e 623 639
e 623 703
e 624 634
e 624 655
e 624 657
e 625 637
e 625 644
e 625 647
e 626 633
e 626 644
e 627 640
e 627 648
e 627 660
e 629 635
e 629 632
e 629 645
e 630 632
e 630 638
e 630 653
e 630 652
e 631 641
e 631 636
e 631 649
e 631 663
e 631 666
e 632 645
e 632 652
e 633 640
e 633 643
e 633 644
e 633 654
e 633 659
e 634 636
e 634 642
e 634 655
e 635 645
e 635 650
e 636 642
e 636 646
e 636 666
e 637 639
e 637 647
e 637 651
e 637 658
e 637 664
e 638 641
e 638 649
e 638 653
e 638 661
e 639 664
e 639 703
e 640 648
e 640 643
e 641 649
e 642 646
e 642 655
e 642 662
e 643 648
e 643 659
e 643 656
e 644 647
e 644 654
e 644 670
e 645 650
e 645 652
e 646 662
e 646 666
e 646 667
e 646 669
e 647 651
e 647 670
e 648 660
e 648 656
e 649 661
e 649 663
e 649 672
e 650 660
e 650 665
e 650 685
e 650 652
e 651 658
e 651 670
e 652 653
e 652 685
e 652 688
e 653 661
e 653 688
e 654 659
e 654 670
e 654 678
e 654 679
e 655 662
e 655 657
e 656 660
e 656 659
e 656 674
e 656 680
e 657 662
e 657 676
e 657 686
e 658 664
e 658 670
e 658 677
e 658 671
e 659 679
e 659 674
e 660 665
e 660 668
e 660 683
e 660 680
e 661 672
e 661 688
e 661 692
e 662 669
e 662 686
e 663 666
e 663 672
e 663 673
e 664 671
e 664 703
e 665 668
e 665 685
e 666 667
e 666 673
e 667 669
e 667 673
e 667 675
e 668 683
e 668 685
e 669 675
e 669 693
e 669 686
e 670 678
e 670 677
e 670 687
e 671 677
e 671 682
e 671 696
e 671 703
e 672 673
e 672 692
e 672 707
e 673 675
e 673 701
e 673 707
e 674 680
e 674 679
e 674 689
e 674 690
e 675 693
e 675 701
e 676 686
e 676 681
e 677 682
e 677 687
e 678 679
e 678 684
e 678 687
e 678 704
e 679 684
e 679 689
e 680 683
e 680 690
e 680 691
e 681 686
e 681 711
e 681 728
e 682 687
e 682 696
e 682 708
e 683 685
e 683 694
e 683 691
e 683 698
e 683 706
e 684 689
e 684 705
e 684 704
e 685 688
e 685 694
e 685 709
e 686 693
e 686 695
e 686 711
e 686 710
e 687 704
e 687 708
e 688 692
e 688 700
e 688 699
e 688 709
e 689 690
e 689 705
e 689 697
e 690 691
e 690 697
e 691 706
e 691 697
e 691 712
e 692 700
e 692 707
e 692 715
e 692 722
e 692 726
e 692 729
e 693 695
e 693 701
e 693 714
e 694 698
e 694 709
e 694 720
e 695 710
e 695 716
e 695 714
e 696 703
e 696 708
e 696 724
e 697 712
e 697 705
e 697 721
e 698 706
e 698 718
e 698 719
e 698 720
e 699 700
e 699 709
e 699 725
e 699 726
e 700 726
e 701 707
e 701 715
e 701 714
e 701 723
e 703 724
e 703 737
e 703 768
e 704 708
e 704 705
e 704 717
e 705 717
e 705 721
e 705 731
e 705 735
e 706 712
e 706 718
e 707 715
e 708 717
e 708 724
e 708 734
e 709 720
e 709 725
e 710 711
e 710 713
e 710 716
e 711 713
e 711 728
e 712 718
e 712 721
e 712 732
e 713 716
e 713 728
e 714 716
e 714 723
e 714 727
e 715 722
e 715 723
e 715 740
e 715 741
e 716 727
e 716 728
e 716 743
e 717 735
e 717 734
e 718 719
e 718 732
e 718 736
e 719 720
e 719 736
e 719 754
e 720 725
e 720 739
e 720 747
e 720 754
e 721 731
e 721 738
e 721 732
e 722 729
e 722 730
e 722 740
e 723 727
e 723 741
e 723 750
e 723 751
e 724 733
e 724 737
e 724 734
e 725 726
e 725 739
e 726 729
e 726 730
e 726 739
e 726 748
e 726 749
e 727 743
e 727 750
e 728 743
e 728 752
e 729 730
e 730 740
e 730 745
e 730 749
e 731 735
e 731 738
e 731 742
e 732 736
e 732 738
e 732 756
e 732 767
e 733 737
e 733 734
e 733 746
e 734 735
e 734 744
e 734 746
e 734 760
e 735 744
e 735 742
e 736 754
e 736 753
e 736 767
e 737 746
e 737 768
e 738 742
e 738 756
e 738 757
e 739 748
e 739 747
e 740 741
e 740 745
e 740 755
e 741 751
e 741 755
e 742 757
e 742 744
e 742 759
e 743 750
e 743 752
e 744 759
e 744 760
e 745 749
e 745 762
e 745 755
e 745 779
e 745 780
e 746 760
e 746 768
e 747 754
e 747 748
e 747 765
e 748 749
e 748 761
e 748 765
e 749 762
e 749 761
e 750 751
e 750 763
e 750 752
e 750 774
e 750 781
e 751 755
e 751 763
e 752 774
e 753 754
e 753 767
e 753 778
e 753 776
e 754 765
e 754 772
e 754 776
e 755 763
e 755 780
e 756 757
e 756 758
e 756 767
e 757 758
e 757 759
e 757 764
e 757 775
e 758 767
e 758 775
e 759 760
e 759 764
e 760 764
e 760 771
e 760 768
e 760 777
e 761 762
e 761 765
e 761 769
e 762 769
e 762 779
e 763 781
e 763 780
e 764 771
e 764 775
e 765 772
e 765 773
e 765 769
e 767 778
e 767 775
e 768 777
e 769 779
e 769 773
e 771 777
e 771 775
e 772 773
e 772 776
e 773 779
e 773 776
e 775 778
e 775 777
e 776 778
e 776 779
e 777 778
e 778 779
e 779 780
e 780 781
e 3 39
e 781 774
e 728 774
